\ENCODING=ISO-8859-1
\Problem name: IloCplex

Minimize
 obj1: x0_6
Subject To
 c_1(0):   x0_6 + x0_1 + x0_2 + x0_3 + x0_4 + x0_5 - x1_0 - x2_0 - x3_0 - x4_0
           - x5_0 - x6_0  = 21
 c_1(1):   - x0_1 + x1_0 + x1_2 + x1_3 + x1_4 + x1_5 + x1_6 - x2_1 - x3_1
           - x4_1 - x5_1 - x6_1  = 0
 c_1(2):   - x0_2 + x2_0 - x1_2 + x2_1 + x2_3 + x2_4 + x2_5 + x2_6 - x3_2
           - x4_2 - x5_2 - x6_2  = 0
 c_1(3):   - x0_3 + x3_0 - x1_3 + x3_1 - x2_3 + x3_2 + x3_4 + x3_5 + x3_6
           - x4_3 - x5_3 - x6_3  = 0
 c_1(4):   - x0_4 + x4_0 - x1_4 + x4_1 - x2_4 + x4_2 - x3_4 + x4_3 + x4_5
           + x4_6 - x5_4 - x6_4  = 0
 c_1(5):   - x0_5 + x5_0 - x1_5 + x5_1 - x2_5 + x5_2 - x3_5 + x5_3 - x4_5
           + x5_4 + x5_6 - x6_5  = 0
 c_1(6):   - x0_6 + x6_0 - x1_6 + x6_1 - x2_6 + x6_2 - x3_6 + x6_3 - x4_6
           + x6_4 - x5_6 + x6_5  = -21
 c_2(0,1): x0_1 <= 10
 c_3(0,1): x0_1 >= 0
 c_2(0,2): x0_2 <= 8
 c_3(0,2): x0_2 >= 0
 c_2(0,3): x0_3 <= 3
 c_3(0,3): x0_3 >= 0
 c_2(0,4): x0_4 <= 0
 c_3(0,4): x0_4 >= 0
 c_2(0,5): x0_5 <= 0
 c_3(0,5): x0_5 >= 0
 c_2(0,6): x0_6 <= 2147483647
 c_3(0,6): x0_6 >= 0
 c_2(1,0): x1_0 <= 0
 c_3(1,0): x1_0 >= 0
 c_2(1,2): x1_2 <= 4
 c_3(1,2): x1_2 >= 0
 c_2(1,3): x1_3 <= 0
 c_3(1,3): x1_3 >= 0
 c_2(1,4): x1_4 <= 4
 c_3(1,4): x1_4 >= 0
 c_2(1,5): x1_5 <= 0
 c_3(1,5): x1_5 >= 0
 c_2(1,6): x1_6 <= 0
 c_3(1,6): x1_6 >= 0
 c_2(2,0): x2_0 <= 0
 c_3(2,0): x2_0 >= 0
 c_2(2,1): x2_1 <= 0
 c_3(2,1): x2_1 >= 0
 c_2(2,3): x2_3 <= 0
 c_3(2,3): x2_3 >= 0
 c_2(2,4): x2_4 <= 8
 c_3(2,4): x2_4 >= 0
 c_2(2,5): x2_5 <= 2
 c_3(2,5): x2_5 >= 0
 c_2(2,6): x2_6 <= 0
 c_3(2,6): x2_6 >= 0
 c_2(3,0): x3_0 <= 0
 c_3(3,0): x3_0 >= 0
 c_2(3,1): x3_1 <= 0
 c_3(3,1): x3_1 >= 0
 c_2(3,2): x3_2 <= 3
 c_3(3,2): x3_2 >= 0
 c_2(3,4): x3_4 <= 7
 c_3(3,4): x3_4 >= 0
 c_2(3,5): x3_5 <= 9
 c_3(3,5): x3_5 >= 0
 c_2(3,6): x3_6 <= 0
 c_3(3,6): x3_6 >= 0
 c_2(4,0): x4_0 <= 0
 c_3(4,0): x4_0 >= 0
 c_2(4,1): x4_1 <= 0
 c_3(4,1): x4_1 >= 0
 c_2(4,2): x4_2 <= 0
 c_3(4,2): x4_2 >= 0
 c_2(4,3): x4_3 <= 0
 c_3(4,3): x4_3 >= 0
 c_2(4,5): x4_5 <= 0
 c_3(4,5): x4_5 >= 0
 c_2(4,6): x4_6 <= 10
 c_3(4,6): x4_6 >= 0
 c_2(5,0): x5_0 <= 0
 c_3(5,0): x5_0 >= 0
 c_2(5,1): x5_1 <= 0
 c_3(5,1): x5_1 >= 0
 c_2(5,2): x5_2 <= 0
 c_3(5,2): x5_2 >= 0
 c_2(5,3): x5_3 <= 0
 c_3(5,3): x5_3 >= 0
 c_2(5,4): x5_4 <= 0
 c_3(5,4): x5_4 >= 0
 c_2(5,6): x5_6 <= 10
 c_3(5,6): x5_6 >= 0
 c_2(6,0): x6_0 <= 0
 c_3(6,0): x6_0 >= 0
 c_2(6,1): x6_1 <= 0
 c_3(6,1): x6_1 >= 0
 c_2(6,2): x6_2 <= 0
 c_3(6,2): x6_2 >= 0
 c_2(6,3): x6_3 <= 0
 c_3(6,3): x6_3 >= 0
 c_2(6,4): x6_4 <= 0
 c_3(6,4): x6_4 >= 0
 c_2(6,5): x6_5 <= 0
 c_3(6,5): x6_5 >= 0
Bounds
      x0_6 >= 0
      x0_1 >= 0
      x0_2 >= 0
      x0_3 >= 0
      x0_4 >= 0
      x0_5 >= 0
      x1_0 >= 0
      x2_0 >= 0
      x3_0 >= 0
      x4_0 >= 0
      x5_0 >= 0
      x6_0 >= 0
      x1_2 >= 0
      x1_3 >= 0
      x1_4 >= 0
      x1_5 >= 0
      x1_6 >= 0
      x2_1 >= 0
      x3_1 >= 0
      x4_1 >= 0
      x5_1 >= 0
      x6_1 >= 0
      x2_3 >= 0
      x2_4 >= 0
      x2_5 >= 0
      x2_6 >= 0
      x3_2 >= 0
      x4_2 >= 0
      x5_2 >= 0
      x6_2 >= 0
      x3_4 >= 0
      x3_5 >= 0
      x3_6 >= 0
      x4_3 >= 0
      x5_3 >= 0
      x6_3 >= 0
      x4_5 >= 0
      x4_6 >= 0
      x5_4 >= 0
      x6_4 >= 0
      x5_6 >= 0
      x6_5 >= 0
Generals
 x0_6  x0_1  x0_2  x0_3  x0_4  x0_5  x1_0  x2_0  x3_0  x4_0  x5_0  x6_0  x1_2 
 x1_3  x1_4  x1_5  x1_6  x2_1  x3_1  x4_1  x5_1  x6_1  x2_3  x2_4  x2_5  x2_6 
 x3_2  x4_2  x5_2  x6_2  x3_4  x3_5  x3_6  x4_3  x5_3  x6_3  x4_5  x4_6  x5_4 
 x6_4  x5_6  x6_5 
End
